p cnf 1412 2217
-4 7 21 101 0
21 -32 -101 102 0
-32 54 -102 103 0
54 73 -103 104 0
73 -79 -104 105 0
-79 -96 -98 -105 0
-2 9 44 106 0
44 -54 -65 -106 0
43 45 63 99 0
4 29 -60 107 0
4 29 -60 -107 0
18 68 71 -98 0
-54 57 -67 108 0
-54 57 -67 -108 0
41 42 73 109 0
41 42 73 -109 0
40 46 61 110 0
61 76 -110 111 0
76 83 -88 -111 0
2 -23 -40 -100 0
-13 32 37 112 0
37 46 -112 113 0
46 -58 -99 -113 0
-9 20 22 114 0
22 -43 -114 115 0
-43 -45 -115 116 0
-45 54 -116 117 0
54 -60 -64 -117 0
-12 63 68 -83 0
21 48 -83 118 0
21 48 -83 -118 0
-6 37 93 119 0
-6 37 93 -119 0
-60 -70 -93 100 0
26 29 -36 120 0
-36 42 -120 121 0
42 94 -98 -121 0
45 59 60 -95 0
8 -11 -35 122 0
-35 -39 -122 123 0
-39 67 -123 124 0
67 68 -124 125 0
68 -75 -125 126 0
-75 -80 -86 -126 0
22 24 41 127 0
41 -54 -127 128 0
-54 61 -128 129 0
61 -62 -99 -129 0
7 -17 33 130 0
33 -44 -130 131 0
-44 -76 -131 132 0
-76 -82 -95 -132 0
-16 61 68 -69 0
-1 11 -30 133 0
-30 -50 -133 134 0
-50 55 -134 135 0
55 -62 -135 136 0
-62 -77 -136 137 0
-77 -81 -86 -137 0
-11 13 53 138 0
53 -79 -138 139 0
-79 -93 -97 -139 0
64 71 -82 140 0
64 71 -82 -140 0
5 6 41 141 0
41 -54 -141 142 0
-54 -81 -142 143 0
-81 -84 97 -143 0
12 16 -22 144 0
-22 -46 -144 145 0
-46 93 -98 -145 0
-7 -24 50 146 0
50 -60 -146 147 0
-60 80 -147 148 0
80 82 -148 149 0
82 95 96 -149 0
75 88 91 93 0
4 -23 -64 150 0
-64 -87 -93 -150 0
-12 -22 -33 151 0
-33 76 -151 152 0
76 77 -83 -152 0
35 73 99 153 0
35 73 99 -153 0
-1 -8 35 154 0
35 -56 -154 155 0
-56 64 -155 156 0
64 86 92 -156 0
-5 -28 -47 60 0
-2 92 157 158 0
-2 92 157 -158 0
-2 92 -157 158 0
-2 92 -157 -158 0
3 -4 -15 159 0
-15 -30 -159 160 0
-30 -33 -160 161 0
-33 -54 -161 162 0
-54 -66 -162 163 0
-66 90 91 -163 0
3 4 32 164 0
32 64 -164 165 0
64 -69 76 -165 0
12 -41 44 166 0
44 -53 -166 167 0
-53 -56 -167 168 0
-56 -92 -97 -168 0
-1 6 35 169 0
35 -50 54 -169 0
-10 19 -20 -23 0
-25 35 88 170 0
-25 35 88 -170 0
-4 -11 -50 171 0
-4 -11 -50 -171 0
22 34 58 172 0
58 -59 -172 173 0
-59 76 -173 174 0
76 77 -174 175 0
77 88 96 -175 0
4 22 -28 176 0
-28 -72 -176 177 0
-72 76 -177 178 0
76 -84 -178 179 0
-84 87 -88 -179 0
7 -29 -33 180 0
-33 -45 -88 -180 0
6 69 -82 99 0
34 -65 -74 181 0
34 -65 -74 -181 0
16 -78 -80 86 0
-3 42 43 182 0
43 -52 -182 183 0
-52 -75 -81 -183 0
12 36 53 184 0
53 63 -184 185 0
63 64 -185 186 0
64 -67 -186 187 0
-67 -77 92 -187 0
6 -45 48 188 0
48 -54 57 -188 0
3 12 -50 66 0
56 -63 72 -79 0
-6 -23 41 189 0
-6 -23 41 -189 0
32 -36 -58 190 0
-58 61 -190 191 0
61 67 -191 192 0
67 -74 -192 193 0
-74 -77 98 -193 0
-10 13 -25 194 0
-25 38 -194 195 0
38 -43 -195 196 0
-43 -59 -196 197 0
-59 62 -197 198 0
62 -65 -95 -198 0
9 -31 -40 199 0
-40 51 -199 200 0
51 -52 -70 -200 0
-17 19 58 97 0
7 62 89 201 0
7 62 89 -201 0
-26 -52 202 203 0
-26 -52 202 -203 0
-26 -52 -202 203 0
-26 -52 -202 -203 0
-45 60 -97 204 0
-45 60 -97 -204 0
19 -25 -67 205 0
19 -25 -67 -205 0
12 -16 -35 206 0
-35 -44 -206 207 0
-44 64 -207 208 0
64 -78 -90 -208 0
-12 20 -58 209 0
-58 -72 -209 210 0
-72 78 85 -210 0
-6 19 44 211 0
-6 19 44 -211 0
-4 11 212 213 0
-4 11 212 -213 0
-4 11 -212 213 0
-4 11 -212 -213 0
19 29 -57 214 0
-57 73 -214 215 0
73 88 -94 -215 0
36 -37 -59 83 0
-49 -60 -65 216 0
-49 -60 -65 -216 0
-43 -98 217 218 0
-43 -98 217 -218 0
-43 -98 -217 218 0
-43 -98 -217 -218 0
39 -52 -67 219 0
39 -52 -67 -219 0
13 15 -23 220 0
-23 -41 -220 221 0
-41 44 -221 222 0
44 -54 -222 223 0
-54 69 87 -223 0
14 -51 -63 224 0
-63 -69 -224 225 0
-69 92 97 -225 0
54 94 99 226 0
54 94 99 -226 0
12 -32 46 227 0
46 -48 -68 -227 0
54 -55 67 228 0
54 -55 67 -228 0
20 36 38 229 0
38 -60 -229 230 0
-60 63 -230 231 0
63 65 -86 -231 0
43 -48 76 232 0
76 87 -232 233 0
87 -89 -93 -233 0
-21 -60 64 234 0
64 -81 94 -234 0
-6 -18 38 235 0
38 -48 -86 -235 0
1 -37 -46 52 0
-5 9 -22 236 0
-22 46 48 -236 0
-6 56 69 237 0
69 -89 -98 -237 0
-31 -60 -71 238 0
-71 -88 91 -238 0
2 -7 10 239 0
10 -49 -81 -239 0
-18 -29 40 -82 0
-28 33 -46 240 0
-46 64 -240 241 0
64 -74 -241 242 0
-74 78 -242 243 0
78 81 -243 244 0
81 -83 -92 -244 0
11 67 72 79 0
4 11 12 73 0
-6 9 -22 245 0
-22 -39 -245 246 0
-39 -76 86 -246 0
-1 55 63 247 0
63 66 73 -247 0
18 37 -43 248 0
-43 -60 -62 -248 0
46 -63 -68 249 0
-68 71 -249 250 0
71 85 -96 -250 0
11 -36 54 251 0
54 57 -251 252 0
57 63 -79 -252 0
7 -41 -70 -96 0
12 -26 61 253 0
61 -63 96 -253 0
9 49 70 71 0
10 51 66 254 0
66 78 100 -254 0
65 -68 255 256 0
65 -68 255 -256 0
65 -68 -255 256 0
65 -68 -255 -256 0
2 33 -50 257 0
-50 -94 -98 -257 0
6 -29 -33 -45 0
-24 26 -27 258 0
-27 37 -258 259 0
37 -41 -259 260 0
-41 -44 -260 261 0
-44 48 -84 -261 0
-8 47 71 262 0
71 74 -262 263 0
74 77 -80 -263 0
5 -10 86 -97 0
-14 19 23 264 0
23 -35 -264 265 0
-35 37 -265 266 0
37 41 87 -266 0
-20 42 46 267 0
46 58 -75 -267 0
-7 -59 -78 95 0
-39 88 98 268 0
-39 88 98 -268 0
23 84 88 -91 0
-3 14 20 269 0
20 23 -269 270 0
23 25 -270 271 0
25 -39 -55 -271 0
-17 -22 -35 88 0
4 -7 -20 272 0
-20 -62 -272 273 0
-62 -67 -273 274 0
-67 -74 -93 -274 0
-14 -37 99 275 0
-14 -37 99 -275 0
26 88 -90 -93 0
45 69 -79 276 0
45 69 -79 -276 0
19 20 -35 277 0
-35 73 81 -277 0
17 33 278 279 0
17 33 278 -279 0
17 33 -278 279 0
17 33 -278 -279 0
7 87 -96 280 0
7 87 -96 -280 0
-31 78 -90 281 0
-90 94 -281 282 0
94 96 -99 -282 0
-53 88 94 283 0
-53 88 94 -283 0
-20 -24 -28 284 0
-28 55 -79 -284 0
-57 -67 78 79 0
9 -14 -31 285 0
-31 38 -285 286 0
38 43 -286 287 0
43 -48 -287 288 0
-48 58 -288 289 0
58 -79 92 -289 0
-2 6 12 290 0
12 23 -290 291 0
23 32 75 -291 0
1 13 -16 292 0
-16 22 -292 293 0
22 -28 -293 294 0
-28 48 -294 295 0
48 95 -97 -295 0
49 66 -84 -97 0
-34 -54 -57 -73 0
-21 -51 -60 -80 0
39 50 -51 296 0
-51 -61 -296 297 0
-61 -64 -297 298 0
-64 67 -298 299 0
67 -75 -77 -299 0
-34 49 71 300 0
71 -94 -98 -300 0
4 32 -42 301 0
-42 -50 -301 302 0
-50 -55 -302 303 0
-55 -87 100 -303 0
-25 -78 -80 304 0
-25 -78 -80 -304 0
-17 30 305 306 0
-17 30 305 -306 0
-17 30 -305 306 0
-17 30 -305 -306 0
-33 37 -89 -92 0
6 29 34 93 0
-41 -81 307 308 0
-41 -81 307 -308 0
-41 -81 -307 308 0
-41 -81 -307 -308 0
-1 -16 21 87 0
11 53 87 309 0
11 53 87 -309 0
5 -11 33 310 0
33 34 -310 311 0
34 -46 -311 312 0
-46 -76 -88 -312 0
1 -16 30 313 0
30 33 -313 314 0
33 35 67 -314 0
19 39 42 315 0
42 43 -315 316 0
43 -75 -316 317 0
-75 77 -97 -317 0
-7 29 -99 318 0
-7 29 -99 -318 0
16 27 -73 93 0
-32 35 -84 319 0
-32 35 -84 -319 0
48 -100 320 321 0
48 -100 320 -321 0
48 -100 -320 321 0
48 -100 -320 -321 0
5 24 26 322 0
26 28 -322 323 0
28 63 -323 324 0
63 -72 -324 325 0
-72 75 -325 326 0
75 95 96 -326 0
22 27 -69 327 0
22 27 -69 -327 0
-13 -23 328 329 0
-13 -23 328 -329 0
-13 -23 -328 329 0
-13 -23 -328 -329 0
51 -60 -72 -100 0
-24 83 94 330 0
-24 83 94 -330 0
-33 42 52 331 0
52 -82 88 -331 0
-9 11 16 332 0
16 -22 -332 333 0
-22 78 -333 334 0
78 97 98 -334 0
19 -21 -54 335 0
-54 -74 -335 336 0
-74 85 -90 -336 0
1 3 -18 337 0
-18 20 56 -337 0
-26 -48 -58 338 0
-26 -48 -58 -338 0
-21 -44 -59 339 0
-21 -44 -59 -339 0
-3 -16 38 77 0
4 -35 -37 340 0
-37 -60 -340 341 0
-60 62 -63 -341 0
-1 -5 41 342 0
41 79 -342 343 0
79 -80 -94 -343 0
-22 53 80 89 0
18 74 -77 344 0
18 74 -77 -344 0
64 75 86 89 0
43 -57 61 345 0
61 -72 -77 -345 0
3 5 26 346 0
26 -33 -346 347 0
-33 -42 -347 348 0
-42 -59 -64 -348 0
11 26 82 349 0
82 83 -99 -349 0
-17 28 29 350 0
29 -44 -350 351 0
-44 -47 74 -351 0
6 9 31 352 0
31 -46 -352 353 0
-46 -55 -92 -353 0
6 -27 39 -40 0
-10 -31 33 354 0
33 34 -354 355 0
34 -36 -355 356 0
-36 38 -356 357 0
38 39 -357 358 0
39 -41 -46 -358 0
5 -26 92 -98 0
12 -35 -44 359 0
-44 56 -359 360 0
56 67 -85 -360 0
-19 -69 77 361 0
77 78 97 -361 0
-12 30 -48 83 0
5 22 -62 362 0
-62 67 84 -362 0
1 -16 -32 363 0
-32 -40 68 -363 0
16 -20 -59 364 0
-59 65 87 -364 0
6 20 -31 365 0
-31 42 -365 366 0
42 -81 -88 -366 0
8 -54 -59 367 0
8 -54 -59 -367 0
5 7 12 368 0
12 23 -368 369 0
23 -37 -369 370 0
-37 -40 -370 371 0
-40 50 76 -371 0
-8 16 25 372 0
25 89 96 -372 0
-12 -43 -52 373 0
-52 63 -373 374 0
63 64 -374 375 0
64 71 -81 -375 0
-3 -35 54 376 0
54 -59 -376 377 0
-59 70 -377 378 0
70 -87 92 -378 0
12 -29 70 74 0
10 -43 -56 379 0
-56 75 -87 -379 0
6 -8 -58 77 0
55 65 79 380 0
79 -85 88 -380 0
-6 -44 64 93 0
26 27 -32 381 0
-32 -46 -381 382 0
-46 54 -56 -382 0
10 38 383 384 0
10 38 383 -384 0
10 38 -383 384 0
10 38 -383 -384 0
-14 18 -50 61 0
-10 33 -48 385 0
-48 -53 -385 386 0
-53 -57 -386 387 0
-57 70 -387 388 0
70 75 -388 389 0
75 -88 92 -389 0
-11 35 -42 390 0
-11 35 -42 -390 0
8 -11 18 391 0
18 53 -391 392 0
53 -63 -74 -392 0
52 54 72 393 0
52 54 72 -393 0
-7 13 38 -69 0
27 77 80 394 0
27 77 80 -394 0
-63 66 -76 395 0
-63 66 -76 -395 0
50 51 82 396 0
50 51 82 -396 0
-9 49 55 397 0
55 70 -397 398 0
70 85 -398 399 0
85 92 -97 -399 0
-8 11 -32 -49 0
-22 41 46 400 0
46 55 -67 -400 0
-18 29 31 401 0
31 -52 -401 402 0
-52 -54 -402 403 0
-54 63 -403 404 0
63 -69 -73 -404 0
-21 72 77 -92 0
2 30 57 -92 0
-2 9 -15 46 0
3 -7 -69 -79 0
-4 35 38 405 0
38 -45 51 -405 0
54 68 69 406 0
54 68 69 -406 0
-8 17 -20 407 0
-20 -44 -407 408 0
-44 -48 -408 409 0
-48 76 -409 410 0
76 77 -410 411 0
77 -84 -411 412 0
-84 -89 -95 -412 0
-4 31 33 413 0
33 50 -413 414 0
50 -63 -414 415 0
-63 70 -71 -415 0
16 -26 42 416 0
42 -53 -416 417 0
-53 -85 -91 -417 0
-25 70 77 -78 0
-2 -6 -10 418 0
-10 20 -418 419 0
20 -39 -419 420 0
-39 -59 -420 421 0
-59 64 -421 422 0
64 -71 -422 423 0
-71 -86 -423 424 0
-86 -90 -95 -424 0
-20 22 62 -88 0
6 73 80 -91 0
2 -7 14 425 0
14 15 -425 426 0
15 50 -426 427 0
50 -63 -427 428 0
-63 -90 -93 -428 0
4 5 21 429 0
21 25 -429 430 0
25 -31 -55 -430 0
2 -16 -33 431 0
-33 59 -431 432 0
59 -69 -432 433 0
-69 89 91 -433 0
-2 84 97 100 0
13 -32 -73 -96 0
8 -21 -31 434 0
-31 -42 -434 435 0
-42 85 -435 436 0
85 86 -92 -436 0
1 44 82 437 0
1 44 82 -437 0
-10 -17 44 438 0
44 -65 -438 439 0
-65 73 95 -439 0
1 -14 -37 440 0
-37 -56 69 -440 0
12 -13 -24 441 0
-24 -39 -441 442 0
-39 -42 -442 443 0
-42 -63 -443 444 0
-63 -75 -444 445 0
-75 99 100 -445 0
-1 -6 12 446 0
12 13 -446 447 0
13 41 -447 448 0
41 73 -448 449 0
73 -78 85 -449 0
21 -50 53 450 0
53 -62 -65 -450 0
-10 15 44 451 0
44 -59 63 -451 0
-19 28 -29 -32 0
-34 44 97 452 0
-34 44 97 -452 0
5 -13 -20 -59 0
31 43 67 453 0
67 -68 -453 454 0
-68 85 -454 455 0
85 86 97 -455 0
13 31 -37 456 0
-37 -81 -456 457 0
-81 85 -457 458 0
85 -93 -458 459 0
-93 96 -97 -459 0
16 -38 -42 460 0
-42 -54 -97 -460 0
8 32 461 462 0
8 32 461 -462 0
8 32 -461 462 0
8 32 -461 -462 0
15 78 -91 463 0
15 78 -91 -463 0
43 -74 -83 464 0
43 -74 -83 -464 0
25 -87 -89 95 0
1 -12 51 465 0
51 52 -465 466 0
52 -61 -466 467 0
-61 -84 -90 -467 0
21 45 62 468 0
62 72 -468 469 0
72 73 -469 470 0
73 -76 -86 -470 0
15 -54 57 471 0
57 -63 66 -471 0
12 21 -59 75 0
65 -72 81 -88 0
7 -15 -32 50 0
-4 41 -45 472 0
-45 -67 -472 473 0
-67 70 -473 474 0
70 76 -474 475 0
76 -83 -86 -475 0
-19 22 -34 476 0
-34 47 -476 477 0
47 -52 -477 478 0
-52 -68 -478 479 0
-68 71 -74 -479 0
6 18 -40 480 0
-40 -49 -480 481 0
-49 60 -481 482 0
60 -61 -79 -482 0
-26 28 67 483 0
-26 28 67 -483 0
16 71 98 484 0
16 71 98 -484 0
-6 -35 -61 485 0
-6 -35 -61 -485 0
-54 69 486 487 0
-54 69 486 -487 0
-54 69 -486 487 0
-54 69 -486 -487 0
28 -34 -76 488 0
28 -34 -76 -488 0
21 -25 -44 489 0
-44 -53 -489 490 0
-53 73 -490 491 0
73 -87 -99 -491 0
-21 29 -67 492 0
-67 -81 -492 493 0
-81 87 94 -493 0
-15 28 53 494 0
-15 28 53 -494 0
-3 -13 20 495 0
-3 -13 20 -495 0
28 38 -66 496 0
-66 82 97 -496 0
45 -46 -68 92 0
-7 -58 -69 -74 0
48 -61 -76 497 0
48 -61 -76 -497 0
1 6 22 498 0
22 24 -498 499 0
24 -32 -499 500 0
-32 -50 -500 501 0
-50 53 -501 502 0
53 -63 -502 503 0
-63 78 96 -503 0
3 8 23 504 0
23 -60 -504 505 0
-60 -72 -78 -505 0
21 -41 55 506 0
55 -57 -77 -506 0
63 -64 76 507 0
63 -64 76 -507 0
-2 29 45 508 0
45 47 -508 509 0
47 -69 -509 510 0
-69 72 -510 511 0
72 74 -95 -511 0
3 52 -57 512 0
-57 85 -512 513 0
85 96 -98 -513 0
-30 -69 73 -90 0
-15 -27 47 514 0
47 -57 -95 -514 0
10 -46 -55 61 0
-7 -14 18 515 0
18 -31 -515 516 0
-31 55 57 -516 0
-15 65 78 -98 0
-40 -69 -80 517 0
-80 -97 100 -517 0
11 -16 19 518 0
19 -58 -90 -518 0
-1 -27 -38 519 0
-38 49 -91 -519 0
-37 42 -55 520 0
-55 73 -520 521 0
73 -83 -521 522 0
-83 87 -522 523 0
87 90 -92 -523 0
20 76 81 88 0
13 20 21 82 0
-15 18 -31 524 0
-31 -48 -524 525 0
-48 -85 95 -525 0
-10 64 72 526 0
72 75 82 -526 0
-5 27 46 527 0
46 -52 -527 528 0
-52 -69 -71 -528 0
55 -72 -77 529 0
-77 80 94 -529 0
-5 20 -45 530 0
-45 63 -530 531 0
63 66 -531 532 0
66 72 -88 -532 0
5 16 -50 -79 0
21 -35 70 -72 0
9 18 58 533 0
58 79 80 -533 0
19 60 75 87 0
-8 74 -77 534 0
-8 74 -77 -534 0
-3 -7 535 536 0
-3 -7 535 -536 0
-3 -7 -535 536 0
-3 -7 -535 -536 0
11 42 -59 537 0
11 42 -59 -537 0
15 -38 -42 -54 0
-33 35 -36 538 0
-36 46 -538 539 0
46 -50 -539 540 0
-50 -53 -540 541 0
-53 57 -93 -541 0
-6 -17 56 542 0
56 80 -542 543 0
80 83 -543 544 0
83 86 -89 -544 0
14 -19 95 545 0
14 -19 95 -545 0
-23 28 32 546 0
32 -44 -546 547 0
-44 46 -547 548 0
46 50 96 -548 0
4 -29 51 549 0
51 55 -549 550 0
55 67 -84 -550 0
7 -16 -68 -87 0
-48 97 551 552 0
-48 97 551 -552 0
-48 97 -551 552 0
-48 97 -551 -552 0
32 93 97 -100 0
-12 23 29 553 0
29 32 -553 554 0
32 34 -554 555 0
34 -48 -64 -555 0
-2 -26 -31 556 0
-31 -44 97 -556 0
8 13 -16 557 0
-16 -29 -557 558 0
-29 -71 -558 559 0
-71 -76 -83 -559 0
-2 -23 -46 560 0
-2 -23 -46 -560 0
35 97 -99 561 0
35 97 -99 -561 0
54 78 -88 562 0
54 78 -88 -562 0
28 29 -44 563 0
-44 82 90 -563 0
-5 26 42 564 0
-5 26 42 -564 0
3 5 -8 565 0
-8 16 96 -565 0
3 -40 87 -99 0
-62 97 566 567 0
-62 97 566 -567 0
-62 97 -566 567 0
-62 97 -566 -567 0
-29 -33 -37 568 0
-37 64 -88 -568 0
1 -66 -76 569 0
-76 87 88 -569 0
18 -23 -40 570 0
-40 47 -570 571 0
47 52 -571 572 0
52 -57 -572 573 0
-57 67 -88 -573 0
4 -6 -11 574 0
-11 15 -574 575 0
15 21 -575 576 0
21 32 -576 577 0
32 41 84 -577 0
-6 10 22 578 0
22 -25 -578 579 0
-25 31 -579 580 0
31 -37 57 -580 0
58 75 -93 581 0
58 75 -93 -581 0
-43 -63 -66 -82 0
-30 -60 -69 -89 0
-3 -7 48 582 0
48 59 -582 583 0
59 -60 -583 584 0
-60 -70 -584 585 0
-70 -73 -585 586 0
-73 76 -586 587 0
76 -84 -86 -587 0
9 -43 58 80 0
13 41 -51 588 0
-51 -59 -588 589 0
-59 -64 -96 -589 0
-34 -87 -89 590 0
-34 -87 -89 -590 0
-1 -26 39 591 0
-1 -26 39 -591 0
2 -42 46 -98 0
15 38 43 592 0
15 38 43 -592 0
-50 -90 593 594 0
-50 -90 593 -594 0
-50 -90 -593 594 0
-50 -90 -593 -594 0
-10 -25 30 96 0
20 62 96 595 0
20 62 96 -595 0
14 -20 42 596 0
42 43 -596 597 0
43 -55 -597 598 0
-55 -85 -97 -598 0
-6 10 -25 599 0
-25 39 -599 600 0
39 42 -600 601 0
42 44 76 -601 0
-8 28 48 602 0
48 51 -602 603 0
51 52 -603 604 0
52 -84 86 -604 0
2 -16 38 605 0
2 -16 38 -605 0
25 36 -82 606 0
25 36 -82 -606 0
-9 -41 44 -93 0
4 5 57 607 0
4 5 57 -607 0
14 33 35 608 0
35 37 -608 609 0
37 72 -609 610 0
72 -81 84 -610 0
31 36 -78 611 0
31 36 -78 -611 0
-9 -22 -32 612 0
-9 -22 -32 -612 0
3 60 -69 -81 0
-33 92 613 614 0
-33 92 613 -614 0
-33 92 -613 614 0
-33 92 -613 -614 0
6 7 -42 615 0
-42 51 -615 616 0
51 61 -616 617 0
61 -91 97 -617 0
-18 20 25 618 0
25 -31 87 -618 0
28 -30 -63 619 0
-63 -83 -619 620 0
-83 94 -99 -620 0
10 12 -27 621 0
-27 29 65 -621 0
-35 -57 -67 622 0
-35 -57 -67 -622 0
-30 -53 -68 623 0
-30 -53 -68 -623 0
-12 -25 47 86 0
-3 13 -44 624 0
-44 -46 -624 625 0
-46 -69 -625 626 0
-69 71 -72 -626 0
-10 -14 50 627 0
50 88 -89 -627 0
-31 62 89 98 0
27 83 -86 628 0
27 83 -86 -628 0
73 84 95 98 0
52 -66 70 629 0
70 -81 -86 -629 0
-8 12 14 630 0
14 35 -630 631 0
35 -42 -631 632 0
-42 -51 -632 633 0
-51 -68 -73 -633 0
20 35 91 92 0
-1 -26 37 634 0
37 38 -634 635 0
38 -53 -635 636 0
-53 -56 83 -636 0
15 18 40 637 0
40 -55 -64 -637 0
15 -36 48 -49 0
1 -7 -19 638 0
-19 -40 -638 639 0
-40 42 -639 640 0
42 43 -640 641 0
43 -45 -641 642 0
-45 47 -642 643 0
47 48 -643 644 0
48 -50 -55 -644 0
14 -35 645 646 0
14 -35 645 -646 0
14 -35 -645 646 0
14 -35 -645 -646 0
6 21 -44 647 0
-44 -53 -647 648 0
-53 65 -648 649 0
65 76 -94 -649 0
-28 -78 86 87 0
-21 39 -57 92 0
14 31 -71 650 0
-71 76 93 -650 0
10 -25 -41 651 0
-41 -49 77 -651 0
25 -29 -68 652 0
-68 74 96 -652 0
15 29 -40 653 0
-40 51 -653 654 0
51 -90 -97 -654 0
17 -63 -68 655 0
17 -63 -68 -655 0
5 14 16 656 0
16 21 -656 657 0
21 32 -657 658 0
32 -46 -658 659 0
-46 -49 -659 660 0
-49 59 85 -660 0
-17 25 34 98 0
1 -21 -52 661 0
-52 -61 -661 662 0
-61 72 -662 663 0
72 73 -663 664 0
73 80 -90 -664 0
-12 -44 63 665 0
63 -68 -665 666 0
-68 79 -96 -666 0
21 -38 79 83 0
19 -52 -65 667 0
-65 84 -96 -667 0
15 -17 -67 86 0
2 64 74 668 0
74 88 -668 669 0
88 -94 97 -669 0
-15 -53 73 670 0
-15 -53 73 -670 0
35 36 -41 671 0
-41 -55 -671 672 0
-55 63 -65 -672 0
19 47 673 674 0
19 47 673 -674 0
19 47 -673 674 0
19 47 -673 -674 0
1 -23 27 675 0
27 -59 70 -675 0
-19 42 -57 676 0
-57 -62 -676 677 0
-62 -66 -677 678 0
-66 79 -678 679 0
79 84 -97 -679 0
-20 44 -51 680 0
-20 44 -51 -680 0
17 -20 27 681 0
27 62 -681 682 0
62 -72 -83 -682 0
61 63 81 683 0
61 63 81 -683 0
-16 22 47 -78 0
36 86 89 684 0
36 86 89 -684 0
-72 75 -85 685 0
-72 75 -85 -685 0
1 -6 59 686 0
59 60 91 -686 0
-18 58 64 687 0
64 79 94 -687 0
-17 20 -41 -58 0
-31 50 55 688 0
55 64 -76 -688 0
-1 -27 38 689 0
38 40 -689 690 0
40 -61 -690 691 0
-61 -63 -691 692 0
-63 72 -692 693 0
72 -78 -82 -693 0
-1 -30 81 86 0
11 39 66 694 0
11 39 66 -694 0
-11 18 -24 55 0
12 -16 -78 -88 0
-13 44 47 695 0
47 -54 60 -695 0
-4 63 77 78 0
-17 26 -29 696 0
-29 -53 -696 697 0
-53 -57 -697 698 0
-57 85 -698 699 0
85 86 -699 700 0
86 -93 -98 -700 0
-13 40 42 701 0
42 59 -701 702 0
59 -72 -702 703 0
-72 79 -80 -703 0
25 -35 51 704 0
51 -62 -704 705 0
-62 -94 -100 -705 0
-4 -34 79 706 0
79 86 -87 -706 0
-11 -15 -19 707 0
-19 29 -707 708 0
29 -48 -708 709 0
-48 -68 -709 710 0
-68 73 -710 711 0
73 -80 -711 712 0
-80 -95 -99 -712 0
-29 31 71 -97 0
-2 15 82 713 0
82 89 -100 -713 0
11 -16 23 714 0
23 24 -714 715 0
24 59 -715 716 0
59 -72 -99 -716 0
13 14 30 717 0
30 34 -717 718 0
34 -40 -64 -718 0
6 9 11 719 0
11 -25 -719 720 0
-25 -42 -720 721 0
-42 68 -721 722 0
68 -78 -722 723 0
-78 98 100 -723 0
-5 -11 93 724 0
-5 -11 93 -724 0
-1 22 -41 -82 0
17 -30 -40 725 0
-40 -51 -725 726 0
-51 94 95 -726 0
4 10 53 91 0
-19 -26 53 727 0
53 -74 82 -727 0
10 -23 -46 728 0
-46 -65 78 -728 0
8 9 -20 729 0
8 9 -20 -729 0
21 -22 -33 730 0
-33 -48 -730 731 0
-48 -51 -731 732 0
-51 -72 -84 -732 0
-10 -15 21 733 0
21 22 -733 734 0
22 50 -734 735 0
50 82 -735 736 0
82 -87 94 -736 0
30 -59 62 737 0
62 -71 -74 -737 0
-19 24 53 738 0
53 -68 72 -738 0
6 -28 37 739 0
37 -38 -41 -739 0
-43 53 740 741 0
-43 53 740 -741 0
-43 53 -740 741 0
-43 53 -740 -741 0
6 14 -22 742 0
-22 -29 -68 -742 0
-2 5 -6 743 0
-6 40 -743 744 0
40 52 -744 745 0
52 76 -745 746 0
76 -77 -746 747 0
-77 94 95 -747 0
-6 22 40 748 0
40 -46 -748 749 0
-46 -90 94 -749 0
25 -47 -51 -63 0
17 41 750 751 0
17 41 750 -751 0
17 41 -750 751 0
17 41 -750 -751 0
24 87 -100 752 0
24 87 -100 -752 0
4 52 -83 -92 0
34 -96 -98 753 0
34 -96 -98 -753 0
10 -21 60 754 0
60 61 -754 755 0
61 -70 -755 756 0
-70 -93 -99 -756 0
30 54 71 757 0
71 81 -757 758 0
81 82 -758 759 0
82 -85 -95 -759 0
24 -63 66 760 0
66 -72 75 -760 0
21 30 -68 84 0
74 -81 90 -97 0
16 -24 -41 59 0
-13 50 -54 761 0
-54 -76 -761 762 0
-76 79 -762 763 0
79 85 -763 764 0
85 -92 -95 -764 0
-28 31 -43 765 0
-43 56 -765 766 0
56 -61 -766 767 0
-61 -77 -767 768 0
-77 80 -83 -768 0
15 27 -49 769 0
-49 -58 -769 770 0
-58 69 -770 771 0
69 -70 -88 -771 0
7 -35 37 76 0
25 80 772 773 0
25 80 772 -773 0
25 80 -772 773 0
25 80 -772 -773 0
-15 -44 -70 774 0
-15 -44 -70 -774 0
-63 78 775 776 0
-63 78 775 -776 0
-63 78 -775 776 0
-63 78 -775 -776 0
-8 37 -43 -85 0
3 30 -34 777 0
-34 -53 -777 778 0
-53 -62 -778 779 0
-62 82 -96 -779 0
-30 38 -76 780 0
-76 -90 96 -780 0
-24 37 62 781 0
-24 37 62 -781 0
6 -12 -22 29 0
1 37 47 782 0
47 -75 91 -782 0
54 -55 -77 783 0
54 -55 -77 -783 0
-16 -67 -78 -83 0
5 57 -70 -85 0
10 15 31 784 0
31 33 -784 785 0
33 -41 -785 786 0
-41 -59 -786 787 0
-59 62 -787 788 0
62 -72 87 -788 0
12 17 32 789 0
32 -69 -789 790 0
-69 -81 -87 -790 0
30 -50 64 791 0
64 -66 -86 -791 0
72 -73 85 792 0
72 -73 85 -792 0
5 -7 -11 793 0
-11 38 -793 794 0
38 54 -794 795 0
54 56 -795 796 0
56 -78 -796 797 0
-78 81 83 -797 0
12 61 -66 94 0
-4 -39 -78 798 0
-78 82 -99 -798 0
-24 -36 56 -66 0
19 -55 -64 70 0
-7 -16 -23 799 0
-23 27 -799 800 0
27 -40 -800 801 0
-40 64 66 -801 0
-6 9 -24 802 0
-24 74 87 -802 0
-49 -78 -89 803 0
-49 -78 -89 -803 0
20 -25 28 804 0
28 -67 -99 -804 0
-1 -10 -36 805 0
-36 -47 -805 806 0
-47 58 -100 -806 0
-46 51 -64 807 0
-64 82 -807 808 0
82 -92 -808 809 0
-92 96 99 -809 0
29 85 90 97 0
4 22 29 810 0
29 30 91 -810 0
-24 27 -40 811 0
-40 -57 -94 -811 0
-19 73 81 812 0
81 84 91 -812 0
3 -14 36 813 0
36 55 -813 814 0
55 -61 -814 815 0
-61 -78 -80 -815 0
64 -81 -86 89 0
-14 29 -54 816 0
-54 72 -816 817 0
72 75 -817 818 0
75 81 -97 -818 0
14 25 -59 -88 0
30 -44 79 -81 0
18 27 67 819 0
67 88 89 -819 0
28 69 84 96 0
-17 83 -86 820 0
-17 83 -86 -820 0
-12 -16 821 822 0
-12 -16 821 -822 0
-12 -16 -821 822 0
-12 -16 -821 -822 0
20 51 -68 823 0
20 51 -68 -823 0
-2 24 -47 824 0
-47 -51 -63 -824 0
-42 44 -45 825 0
-45 55 -825 826 0
55 -59 -826 827 0
-59 -62 66 -827 0
4 -15 -26 828 0
-26 65 -828 829 0
65 89 -829 830 0
89 92 -830 831 0
92 95 -98 -831 0
5 23 -28 832 0
5 23 -28 -832 0
-32 37 41 833 0
41 -53 -833 834 0
-53 55 59 -834 0
13 -38 60 835 0
60 64 -835 836 0
64 76 -93 -836 0
6 16 -25 837 0
-25 -77 -96 -837 0
2 6 -9 -57 0
6 -21 32 838 0
32 38 -838 839 0
38 41 -839 840 0
41 43 -840 841 0
43 -57 -73 -841 0
-11 -35 -40 -53 0
17 22 -25 842 0
-25 -38 -842 843 0
-38 -80 -843 844 0
-80 -85 -92 -844 0
6 -8 -11 845 0
-11 -32 -55 -845 0
63 87 -97 846 0
63 87 -97 -846 0
37 38 -53 847 0
-53 91 99 -847 0
5 -14 35 51 0
-8 12 14 848 0
14 -17 25 -848 0
6 12 -49 96 0
-38 -42 -46 849 0
-46 73 -97 -849 0
10 -75 -85 850 0
-85 96 97 -850 0
27 -32 -49 851 0
-49 56 -851 852 0
56 61 -852 853 0
61 -66 -853 854 0
-66 76 -97 -854 0
13 -15 -20 855 0
-20 24 -855 856 0
24 30 -856 857 0
30 41 -857 858 0
41 50 93 -858 0
-2 -15 19 859 0
19 31 -859 860 0
31 -34 -860 861 0
-34 40 -861 862 0
40 -46 66 -862 0
67 84 863 864 0
67 84 863 -864 0
67 84 -863 864 0
67 84 -863 -864 0
-52 -72 -75 -91 0
-39 -69 -78 -98 0
-12 -16 57 865 0
57 68 -865 866 0
68 -69 -866 867 0
-69 -79 -867 868 0
-79 -82 -868 869 0
-82 85 -869 870 0
85 -93 -95 -870 0
-5 18 -52 871 0
-52 67 89 -871 0
22 50 -60 872 0
-60 -68 -73 -872 0
-43 -96 -98 873 0
-43 -96 -98 -873 0
-7 -10 -35 48 0
11 -51 55 874 0
11 -51 55 -874 0
24 47 52 875 0
24 47 52 -875 0
5 -59 -99 876 0
5 -59 -99 -876 0
5 -19 -34 39 0
29 71 877 878 0
29 71 877 -878 0
29 71 -877 878 0
29 71 -877 -878 0
-6 23 879 880 0
-6 23 879 -880 0
-6 23 -879 880 0
-6 23 -879 -880 0
23 -29 51 881 0
51 52 -881 882 0
52 -64 -94 -882 0
-15 19 -34 883 0
-34 48 -883 884 0
48 51 -884 885 0
51 53 85 -885 0
-17 37 57 886 0
57 60 -886 887 0
60 61 -887 888 0
61 -93 95 -888 0
11 -25 47 889 0
11 -25 47 -889 0
-2 34 45 -91 0
-18 -50 53 890 0
-18 -50 53 -890 0
13 14 66 891 0
13 14 66 -891 0
23 42 44 892 0
44 46 -892 893 0
46 81 -893 894 0
81 -90 93 -894 0
40 45 -87 895 0
40 45 -87 -895 0
-18 -31 -41 896 0
-18 -31 -41 -896 0
1 12 69 897 0
69 -78 -90 -897 0
6 -42 898 899 0
6 -42 898 -899 0
6 -42 -898 899 0
6 -42 -898 -899 0
15 16 -51 900 0
-51 60 -900 901 0
60 70 -100 -901 0
3 -8 -27 902 0
-27 29 -902 903 0
29 34 -903 904 0
34 -40 96 -904 0
37 -39 -72 -92 0
19 21 -36 905 0
-36 38 74 -905 0
-44 -66 -76 906 0
-44 -66 -76 -906 0
-39 -62 -77 907 0
-39 -62 -77 -907 0
-21 -34 56 95 0
-12 22 -53 908 0
-53 -55 -908 909 0
-55 -78 -909 910 0
-78 80 -81 -910 0
7 -19 -23 911 0
-23 59 -911 912 0
59 97 -98 -912 0
-40 71 98 913 0
-40 71 98 -913 0
4 7 36 914 0
36 92 -95 -914 0
82 93 915 916 0
82 93 915 -916 0
82 93 -915 916 0
82 93 -915 -916 0
61 -75 79 917 0
79 -90 -95 -917 0
1 -17 21 918 0
21 23 -918 919 0
23 44 -919 920 0
44 -51 -920 921 0
-51 -60 -921 922 0
-60 -77 -82 -922 0
29 44 100 923 0
29 44 100 -923 0
-10 -35 46 924 0
46 47 -924 925 0
47 -62 -925 926 0
-62 -65 92 -926 0
24 27 49 927 0
49 -64 -73 -927 0
24 -45 57 -58 0
10 -16 -28 928 0
-28 -49 -928 929 0
-49 51 -929 930 0
51 52 -930 931 0
52 -54 -931 932 0
-54 56 -932 933 0
56 57 -933 934 0
57 -59 -64 -934 0
-2 23 -44 935 0
-2 23 -44 -935 0
15 30 -53 936 0
-53 -62 -936 937 0
-62 74 85 -937 0
1 -37 -87 938 0
-87 95 96 -938 0
2 -30 48 -66 0
23 40 -80 85 0
5 19 -34 939 0
-34 -50 -939 940 0
-50 -58 86 -940 0
34 -38 -77 83 0
24 38 -49 941 0
-49 60 -99 -941 0
26 -72 -77 942 0
26 -72 -77 -942 0
7 14 23 943 0
23 25 -943 944 0
25 30 -944 945 0
30 41 -945 946 0
41 -55 -946 947 0
-55 -58 -947 948 0
-58 68 94 -948 0
-26 34 43 949 0
-26 34 43 -949 0
-5 10 -30 950 0
-30 -61 -950 951 0
-61 -70 -951 952 0
-70 81 -952 953 0
81 82 -953 954 0
82 89 -99 -954 0
-21 -53 72 955 0
72 -77 88 -955 0
-5 30 -47 956 0
-47 88 92 -956 0
28 -61 -74 93 0
-3 6 24 957 0
24 -26 -957 958 0
-26 -76 95 -958 0
11 73 83 97 0
-24 -62 82 959 0
-24 -62 82 -959 0
44 45 -50 960 0
-50 -64 -960 961 0
-64 72 -74 -961 0
28 56 962 963 0
28 56 962 -963 0
28 56 -962 963 0
28 56 -962 -963 0
-6 10 -32 964 0
-32 36 -964 965 0
36 -68 79 -965 0
-28 51 -66 966 0
-66 -71 -966 967 0
-71 -75 -967 968 0
-75 88 93 -968 0
-29 53 -60 969 0
-29 53 -60 -969 0
26 -29 36 970 0
36 71 -970 971 0
71 -81 -92 -971 0
70 72 90 972 0
70 72 90 -972 0
-25 31 56 -87 0
45 95 98 973 0
45 95 98 -973 0
-81 84 -94 974 0
-81 84 -94 -974 0
3 10 -15 975 0
-15 68 -975 976 0
68 69 100 -976 0
-27 67 73 88 0
-26 29 -50 -67 0
-40 59 64 977 0
64 73 -85 -977 0
-10 -36 47 978 0
47 49 -978 979 0
49 -70 -979 980 0
-70 -72 -980 981 0
-72 81 -981 982 0
81 -87 -91 -982 0
-10 -39 90 95 0
20 48 75 983 0
20 48 75 -983 0
-20 27 -33 64 0
21 -25 -87 -97 0
-22 53 56 984 0
56 -63 69 -984 0
-2 -7 -13 985 0
-13 72 -985 986 0
72 86 87 -986 0
-26 35 -38 987 0
-38 -62 -987 988 0
-62 -66 -988 989 0
-66 94 95 -989 0
-3 -9 -22 990 0
-22 49 -990 991 0
49 51 -991 992 0
51 68 -992 993 0
68 -81 -993 994 0
-81 88 -89 -994 0
34 -44 60 -71 0
-4 -8 -13 995 0
-13 -43 -995 996 0
-43 88 -996 997 0
88 95 -96 -997 0
-6 -20 -24 998 0
-24 -28 -998 999 0
-28 38 -999 1000 0
38 -57 -1000 1001 0
-57 -77 -1001 1002 0
-77 82 -89 -1002 0
-9 -38 40 80 0
-8 -11 24 1003 0
24 91 98 -1003 0
20 -25 32 1004 0
32 33 -1004 1005 0
33 68 -81 -1005 0
7 9 22 1006 0
22 23 -1006 1007 0
23 39 -1007 1008 0
39 43 -1008 1009 0
43 -49 -73 -1009 0
2 15 18 1010 0
18 20 -1010 1011 0
20 -34 -1011 1012 0
-34 -51 -1012 1013 0
-51 77 -87 -1013 0
-14 -20 1014 1015 0
-14 -20 1014 -1015 0
-14 -20 -1014 1015 0
-14 -20 -1014 -1015 0
3 4 -10 1016 0
-10 31 -1016 1017 0
31 -50 -91 -1017 0
26 -39 -49 -60 0
13 19 62 100 0
-28 -35 62 1018 0
62 -83 91 -1018 0
19 -32 -55 1019 0
-55 -74 87 -1019 0
17 18 -29 1020 0
17 18 -29 -1020 0
3 30 -31 1021 0
-31 -42 -1021 1022 0
-42 -57 -1022 1023 0
-57 -60 -1023 1024 0
-60 -81 -93 -1024 0
-19 -24 30 1025 0
30 31 -1025 1026 0
31 59 -1026 1027 0
59 91 -96 -1027 0
39 -68 71 1028 0
71 -80 -83 -1028 0
-28 33 62 1029 0
62 -77 81 -1029 0
15 -37 46 1030 0
46 -47 -50 -1030 0
-52 62 1031 1032 0
-52 62 1031 -1032 0
-52 62 -1031 1032 0
-52 62 -1031 -1032 0
3 4 15 1033 0
15 23 -1033 1034 0
23 -31 -1034 1035 0
-31 -38 -77 -1035 0
3 -11 14 1036 0
14 -15 -1036 1037 0
-15 49 -1037 1038 0
49 61 -1038 1039 0
61 85 -86 -1039 0
-15 31 49 1040 0
49 -55 -99 -1040 0
34 -56 -60 -72 0
-9 26 50 1041 0
-9 26 50 -1041 0
-1 33 96 1042 0
-1 33 96 -1042 0
-5 -7 13 1043 0
13 61 -92 -1043 0
-2 -8 43 1044 0
-2 -8 43 -1044 0
-4 19 -30 1045 0
-30 69 -1045 1046 0
69 70 -79 -1046 0
39 63 80 1047 0
80 90 -1047 1048 0
90 91 -94 -1048 0
33 -72 75 1049 0
75 -81 84 -1049 0
-6 30 39 1050 0
39 -77 93 -1050 0
83 -90 99 1051 0
83 -90 99 -1051 0
-1 -4 25 1052 0
25 -33 -1052 1053 0
-33 -50 68 -1053 0
-22 59 -63 1054 0
-63 -85 -1054 1055 0
-85 88 94 -1055 0
-37 40 -52 1056 0
-52 65 -1056 1057 0
65 -70 -1057 1058 0
-70 -86 -1058 1059 0
-86 89 -92 -1059 0
24 36 -58 1060 0
-58 -67 -1060 1061 0
-67 78 -1061 1062 0
78 -79 -97 -1062 0
16 -44 46 85 0
34 89 1063 1064 0
34 89 1063 -1064 0
34 89 -1063 1064 0
34 89 -1063 -1064 0
-24 -53 -79 1065 0
-24 -53 -79 -1065 0
-72 87 1066 1067 0
-72 87 1066 -1067 0
-72 87 -1066 1067 0
-72 87 -1066 -1067 0
-5 -17 46 1068 0
46 -52 -94 -1068 0
5 12 39 1069 0
39 -43 -1069 1070 0
-43 -62 -1070 1071 0
-62 -71 91 -1071 0
-39 47 -85 -99 0
-33 46 71 1072 0
-33 46 71 -1072 0
15 -21 -31 38 0
10 46 56 1073 0
56 -84 100 -1073 0
63 -64 -86 1074 0
63 -64 -86 -1074 0
-25 -76 -87 -92 0
14 66 -79 -94 0
19 24 40 1075 0
40 42 -1075 1076 0
42 -50 -1076 1077 0
-50 -68 -1077 1078 0
-68 71 -1078 1079 0
71 -81 96 -1079 0
21 26 41 1080 0
41 -78 -1080 1081 0
-78 -90 -96 -1081 0
39 -59 73 1082 0
73 -75 -95 -1082 0
81 -82 94 1083 0
81 -82 94 -1083 0
3 14 -16 1084 0
-16 -20 -1084 1085 0
-20 47 -1085 1086 0
47 63 -1086 1087 0
63 65 -1087 1088 0
65 -87 -1088 1089 0
-87 90 92 -1089 0
-8 21 70 -75 0
-13 -48 -87 91 0
-33 -45 65 -75 0
28 -64 -73 79 0
-16 -25 -32 1090 0
-32 36 -1090 1091 0
36 -49 -1091 1092 0
-49 73 75 -1092 0
-15 18 -33 1093 0
-33 83 96 -1093 0
-8 -58 -87 -98 0
-9 29 -34 1094 0
-34 37 -76 -1094 0
-1 5 8 1095 0
8 -10 -1095 1096 0
-10 -19 -1096 1097 0
-19 -45 -1097 1098 0
-45 -56 67 -1098 0
6 -55 60 1099 0
60 -73 91 -1099 0
38 94 99 1100 0
38 94 99 -1100 0
-3 13 31 1101 0
31 38 -1101 1102 0
38 39 100 -1102 0
-33 36 -49 -66 0
-28 82 90 1103 0
90 93 100 -1103 0
12 -23 45 1104 0
45 64 -1104 1105 0
64 -70 -1105 1106 0
-70 -87 -89 -1106 0
73 -90 -95 98 0
-6 -65 1107 1108 0
-6 -65 1107 -1108 0
-6 -65 -1107 1108 0
-6 -65 -1107 -1108 0
-23 38 -63 1109 0
-63 81 -1109 1110 0
81 84 90 -1110 0
23 34 -68 -97 0
39 -53 88 -90 0
5 27 36 1111 0
36 76 -1111 1112 0
76 97 98 -1112 0
37 78 93 1113 0
37 78 93 -1113 0
-26 92 -95 1114 0
-26 92 -95 -1114 0
-21 -25 1115 1116 0
-21 -25 1115 -1116 0
-21 -25 -1115 1116 0
-21 -25 -1115 -1116 0
29 60 -77 1117 0
29 60 -77 -1117 0
-11 33 -56 1118 0
-56 -60 -72 -1118 0
1 4 -7 1119 0
-7 -51 -1119 1120 0
-51 53 -1120 1121 0
53 -54 -1121 1122 0
-54 64 -1122 1123 0
64 -68 -1123 1124 0
-68 -71 75 -1124 0
13 -24 -35 1125 0
-35 74 98 -1125 0
14 32 -37 1126 0
14 32 -37 -1126 0
-2 -41 46 1127 0
46 50 -1127 1128 0
50 -62 -1128 1129 0
-62 64 68 -1129 0
-5 22 -47 1130 0
-47 69 -1130 1131 0
69 73 85 -1131 0
15 25 -34 -86 0
11 15 -18 -66 0
15 -30 41 1132 0
41 47 -1132 1133 0
47 50 -1133 1134 0
50 52 -1134 1135 0
52 -66 -82 -1135 0
-1 -20 -44 1136 0
-44 -49 -62 -1136 0
26 31 -34 1137 0
-34 -47 -1137 1138 0
-47 -89 -94 -1138 0
15 -17 -20 1139 0
-20 -41 -64 -1139 0
-6 53 1140 1141 0
-6 53 1140 -1141 0
-6 53 -1140 1141 0
-6 53 -1140 -1141 0
8 72 96 1142 0
8 72 96 -1142 0
46 47 -62 100 0
14 -23 44 60 0
5 -17 21 1143 0
21 23 -1143 1144 0
23 -26 34 -1144 0
15 21 -58 1145 0
15 21 -58 -1145 0
-6 -80 1146 1147 0
-6 -80 1146 -1147 0
-6 -80 -1146 1147 0
-6 -80 -1146 -1147 0
5 6 -47 1148 0
-47 -51 -1148 1149 0
-51 -55 82 -1149 0
-6 19 -84 -94 0
2 36 -41 1150 0
-41 -58 -1150 1151 0
-58 65 -1151 1152 0
65 70 -1152 1153 0
70 -75 85 -1153 0
22 -24 -29 1154 0
-29 33 -1154 1155 0
33 39 -1155 1156 0
39 50 59 -1156 0
-11 -24 28 1157 0
28 40 -1157 1158 0
40 -43 -1158 1159 0
-43 49 -1159 1160 0
49 -55 75 -1160 0
76 93 1161 1162 0
76 93 1161 -1162 0
76 93 -1161 1162 0
76 93 -1161 -1162 0
-7 -61 -81 1163 0
-81 -84 -100 -1163 0
-2 -4 -48 1164 0
-48 -78 -87 -1164 0
-21 -25 66 1165 0
66 77 -1165 1166 0
77 -78 -1166 1167 0
-78 -88 -1167 1168 0
-88 -91 94 -1168 0
-14 27 -61 1169 0
-61 76 98 -1169 0
-5 -7 31 1170 0
31 59 -1170 1171 0
59 -69 -1171 1172 0
-69 -77 -82 -1172 0
-16 -19 -44 57 0
20 -60 64 1173 0
20 -60 64 -1173 0
-8 33 56 61 0
14 -68 1174 1175 0
14 -68 1174 -1175 0
14 -68 -1174 1175 0
14 -68 -1174 -1175 0
14 -28 -43 48 0
38 80 1176 1177 0
38 80 1176 -1177 0
38 80 -1176 1177 0
38 80 -1176 -1177 0
-3 -15 32 1178 0
-3 -15 32 -1178 0
32 -38 60 1179 0
60 61 -73 -1179 0
-2 4 -24 1180 0
-24 28 -1180 1181 0
28 -43 -1181 1182 0
-43 57 -1182 1183 0
57 60 -1183 1184 0
60 62 94 -1184 0
-26 46 66 1185 0
66 69 70 -1185 0
20 -34 56 1186 0
20 -34 56 -1186 0
-11 43 54 -100 0
-27 -59 62 1187 0
-27 -59 62 -1187 0
2 22 23 75 0
32 51 53 1188 0
53 55 -1188 1189 0
55 90 -99 -1189 0
49 54 -96 1190 0
49 54 -96 -1190 0
-27 -40 -50 1191 0
-27 -40 -50 -1191 0
10 21 78 1192 0
78 -87 -99 -1192 0
-9 15 -51 1193 0
-9 15 -51 -1193 0
5 24 25 1194 0
25 -60 -1194 1195 0
-60 69 79 -1195 0
-1 12 -17 1196 0
-17 -36 -1196 1197 0
-36 38 -1197 1198 0
38 43 -49 -1198 0
46 -48 -81 1199 0
46 -48 -81 -1199 0
28 30 -45 1200 0
-45 47 83 -1200 0
-53 -75 -85 1201 0
-53 -75 -85 -1201 0
4 -48 -71 -86 0
-30 -43 65 1202 0
-30 -43 65 -1202 0
6 -7 -21 1203 0
-21 31 -1203 1204 0
31 -62 -1204 1205 0
-62 -64 -1205 1206 0
-64 -87 -1206 1207 0
-87 89 -90 -1207 0
7 16 -28 1208 0
-28 -32 68 -1208 0
1 -4 -49 80 0
2 13 16 45 0
-4 91 1209 1210 0
-4 91 1209 -1210 0
-4 91 -1209 1210 0
-4 91 -1209 -1210 0
70 -84 88 -99 0
9 10 -26 1211 0
-26 30 -1211 1212 0
30 32 -1212 1213 0
32 53 -1213 1214 0
53 -60 -1214 1215 0
-60 -69 -1215 1216 0
-69 -86 -91 -1216 0
1 38 53 1217 0
1 38 53 -1217 0
-19 -44 55 1218 0
55 56 -1218 1219 0
56 -71 -74 -1219 0
33 36 58 1220 0
58 -73 -82 -1220 0
33 -54 66 -67 0
19 -25 -37 1221 0
-37 -58 -1221 1222 0
-58 60 -1222 1223 0
60 61 -1223 1224 0
61 -63 -1224 1225 0
-63 65 -1225 1226 0
65 66 -1226 1227 0
66 -68 -73 -1227 0
-11 32 -53 1228 0
-11 32 -53 -1228 0
4 5 24 1229 0
24 39 -1229 1230 0
39 -62 -1230 1231 0
-62 -71 -1231 1232 0
-71 83 94 -1232 0
10 -46 -96 1233 0
10 -46 -96 -1233 0
11 -39 57 -75 0
32 49 -89 94 0
14 28 -43 1234 0
-43 -59 -1234 1235 0
-59 -67 95 -1235 0
43 -47 -86 92 0
-8 -15 1236 1237 0
-8 -15 1236 -1237 0
-8 -15 -1236 1237 0
-8 -15 -1236 -1237 0
33 47 -58 69 0
3 35 -81 -86 0
16 23 32 1238 0
32 34 -1238 1239 0
34 39 -1239 1240 0
39 50 -1240 1241 0
50 -64 -1241 1242 0
-64 -67 77 -1242 0
-8 -35 43 52 0
-14 19 -39 1243 0
-39 -70 -1243 1244 0
-70 -79 -1244 1245 0
-79 90 -1245 1246 0
90 91 98 -1246 0
1 -30 -62 1247 0
-62 81 -1247 1248 0
81 -86 97 -1248 0
2 -14 39 1249 0
39 -56 97 -1249 0
4 37 -70 -83 0
6 -12 15 1250 0
15 33 -1250 1251 0
33 -35 -85 -1251 0
20 82 92 1252 0
20 82 92 -1252 0
-33 -71 91 1253 0
-33 -71 91 -1253 0
53 54 -59 1254 0
-59 -73 -1254 1255 0
-73 81 -83 -1255 0
37 65 1256 1257 0
37 65 1256 -1257 0
37 65 -1256 1257 0
37 65 -1256 -1257 0
2 -15 19 1258 0
19 -41 -1258 1259 0
-41 45 -1259 1260 0
45 -77 88 -1260 0
-37 60 -75 1261 0
-75 -80 -1261 1262 0
-80 -84 97 -1262 0
-1 -38 62 -69 0
35 -38 45 1263 0
45 80 -90 -1263 0
79 81 99 1264 0
79 81 99 -1264 0
4 7 -34 1265 0
-34 40 -1265 1266 0
40 65 -96 -1266 0
-3 54 1267 1268 0
-3 54 1267 -1268 0
-3 54 -1267 1268 0
-3 54 -1267 -1268 0
9 -90 93 1269 0
9 -90 93 -1269 0
12 19 -24 1270 0
-24 77 78 -1270 0
-36 76 82 97 0
-35 38 -59 -76 0
-49 68 73 1271 0
73 82 -94 -1271 0
4 -19 -45 1272 0
-45 56 -1272 1273 0
56 58 -1273 1274 0
58 -79 -1274 1275 0
-79 -81 -1275 1276 0
-81 90 -1276 1277 0
90 -96 -100 -1277 0
-19 -48 99 1278 0
-19 -48 99 -1278 0
29 57 84 1279 0
29 57 84 -1279 0
-6 -29 36 1280 0
36 -42 73 -1280 0
30 -34 -96 1281 0
30 -34 -96 -1281 0
-31 62 65 1282 0
65 -72 78 -1282 0
3 4 -11 1283 0
-11 -16 -1283 1284 0
-16 -22 -1284 1285 0
-22 81 -1285 1286 0
81 95 96 -1286 0
-35 44 -47 1287 0
-47 -71 -75 -1287 0
-12 -18 -31 1288 0
-31 58 -1288 1289 0
58 60 -1289 1290 0
60 77 -1290 1291 0
77 -90 -1291 1292 0
-90 97 -98 -1292 0
4 -5 43 1293 0
43 -53 -1293 1294 0
-53 69 -80 -1294 0
-13 -17 -22 1295 0
-22 -52 97 -1295 0
-15 -29 -33 1296 0
-33 -37 -1296 1297 0
-37 47 -1297 1298 0
47 -66 -1298 1299 0
-66 -86 -1299 1300 0
-86 91 -98 -1300 0
7 -18 -47 1301 0
-47 49 89 -1301 0
-17 -20 33 100 0
29 -34 41 1302 0
41 42 -1302 1303 0
42 77 -90 -1303 0
16 18 31 1304 0
31 32 -1304 1305 0
32 48 -1305 1306 0
48 52 -1306 1307 0
52 -58 -82 -1307 0
11 24 27 1308 0
27 29 -1308 1309 0
29 -43 -1309 1310 0
-43 -60 -1310 1311 0
-60 86 -96 -1311 0
-23 -29 1312 1313 0
-23 -29 1312 -1313 0
-23 -29 -1312 1313 0
-23 -29 -1312 -1313 0
12 13 -19 1314 0
-19 40 -1314 1315 0
40 -59 -100 -1315 0
9 35 -48 1316 0
-48 -58 -69 -1316 0
22 28 71 1317 0
22 28 71 -1317 0
-37 -44 71 1318 0
71 -92 100 -1318 0
28 -41 -64 1319 0
-64 -83 96 -1319 0
-2 26 27 -38 0
-5 12 39 1320 0
39 -40 -1320 1321 0
-40 -51 -1321 1322 0
-51 -66 -1322 1323 0
-66 -69 -90 -1323 0
-28 -33 39 1324 0
39 40 -1324 1325 0
40 68 100 -1325 0
48 -77 80 1326 0
80 -89 -92 -1326 0
-37 42 71 1327 0
71 -86 90 -1327 0
24 -46 55 1328 0
55 -56 -59 -1328 0
-61 71 1329 1330 0
-61 71 1329 -1330 0
-61 71 -1329 1330 0
-61 71 -1329 -1330 0
12 13 24 1331 0
24 32 -1331 1332 0
32 -40 -1332 1333 0
-40 -47 -86 -1333 0
-8 12 -20 1334 0
-20 23 -1334 1335 0
23 -24 -1335 1336 0
-24 58 -1336 1337 0
58 70 -1337 1338 0
70 94 -95 -1338 0
-24 40 58 -64 0
43 -65 -69 -81 0
5 -18 35 59 0
-1 -10 42 1339 0
-1 -10 42 -1339 0
-14 -16 22 70 0
-11 -17 52 1340 0
-11 -17 52 -1340 0
-3 -13 28 1341 0
28 -39 -1341 1342 0
-39 78 -1342 1343 0
78 79 -88 -1343 0
48 72 89 1344 0
89 99 100 -1344 0
2 42 -81 1345 0
-81 84 -1345 1346 0
84 -90 93 -1346 0
8 -15 39 1347 0
39 48 -86 -1347 0
92 -99 1348 1349 0
92 -99 1348 -1349 0
92 -99 -1348 1349 0
92 -99 -1348 -1349 0
3 -10 -13 1350 0
-13 34 -1350 1351 0
34 -42 -1351 1352 0
-42 -59 77 -1352 0
-1 -31 68 1353 0
68 -72 -1353 1354 0
-72 -94 97 -1354 0
-6 -46 49 1355 0
49 -61 -1355 1356 0
-61 74 -1356 1357 0
74 -79 -1357 1358 0
-79 -95 98 -1358 0
33 45 -67 1359 0
-67 -76 -1359 1360 0
-76 87 -88 -1360 0
25 -53 55 94 0
43 98 1361 1362 0
43 98 1361 -1362 0
43 98 -1361 1362 0
43 98 -1361 -1362 0
-33 -62 -88 1363 0
-33 -62 -88 -1363 0
-3 -81 96 1364 0
-3 -81 96 -1364 0
-14 -26 55 -61 0
-8 14 21 1365 0
21 48 -1365 1366 0
48 -52 -1366 1367 0
-52 -71 -1367 1368 0
-71 -80 100 -1368 0
-48 56 -94 1369 0
-48 56 -94 -1369 0
-42 55 80 1370 0
-42 55 80 -1370 0
9 24 -30 1371 0
-30 -40 47 -1371 0
19 55 65 -93 0
-1 72 -73 -95 0
-34 -85 -96 1372 0
-34 -85 -96 -1372 0
-3 -79 1373 1374 0
-3 -79 1373 -1374 0
-3 -79 -1373 1374 0
-3 -79 -1373 -1374 0
5 23 75 -88 0
-5 28 33 1375 0
33 49 -1375 1376 0
49 51 -1376 1377 0
51 -59 -1377 1378 0
-59 -77 -1378 1379 0
-77 80 -90 -1379 0
30 35 50 1380 0
50 -87 -99 -1380 0
-4 90 1381 1382 0
-4 90 1381 -1382 0
-4 90 -1381 1382 0
-4 90 -1381 -1382 0
3 48 -68 1383 0
-68 82 -84 -1383 0
90 -91 1384 1385 0
90 -91 1384 -1385 0
90 -91 -1384 1385 0
90 -91 -1384 -1385 0
1 -22 1386 1387 0
1 -22 1386 -1387 0
1 -22 -1386 1387 0
1 -22 -1386 -1387 0
12 23 -25 1388 0
-25 -29 -1388 1389 0
-29 56 -1389 1390 0
56 72 -1390 1391 0
72 74 -1391 1392 0
74 -96 99 -1392 0
-17 30 79 -84 0
-22 -57 -96 100 0
-42 -54 74 -84 0
37 -73 -82 88 0
5 -25 -34 1393 0
-34 -41 -1393 1394 0
-41 45 -1394 1395 0
45 -58 -1395 1396 0
-58 82 84 -1396 0
-7 -24 27 1397 0
27 -42 92 -1397 0
-17 -67 -96 1398 0
-17 -67 -96 -1398 0
-18 38 -43 1399 0
-43 46 -85 -1399 0
-10 14 17 1400 0
17 -19 -1400 1401 0
-19 -28 -1401 1402 0
-28 -54 -1402 1403 0
-54 -65 76 -1403 0
3 8 15 1404 0
15 -64 -1404 1405 0
-64 69 -1405 1406 0
69 -82 100 -1406 0
9 47 1407 1408 0
9 47 1407 -1408 0
9 47 -1407 1408 0
9 47 -1407 -1408 0
-12 22 40 1409 0
40 47 48 -1409 0
2 9 -42 1410 0
-42 45 -1410 1411 0
45 -58 -75 -1411 0
-37 91 99 1412 0
-37 91 99 -1412 0
